
Gurobi 10.0.1 (mac64[arm]) logging started Mon Sep 18 23:00:03 2023

Set parameter LogFile to value "scenario_returns/returns_alpha/results/M_j_a_-25/mip_log.txt"
Gurobi Optimizer version 10.0.1 build v10.0.1rc0 (mac64[arm])

CPU model: Apple M1
Thread count: 8 physical cores, 8 logical processors, using up to 8 threads

Optimize a model with 3388 rows, 12586 columns and 49544 nonzeros
Model fingerprint: 0xbf9f5c6d
Model has 17956 general constraints
Variable types: 2 continuous, 12584 integer (816 binary)
Coefficient statistics:
  Matrix range     [6e-02, 3e+05]
  Objective range  [9e-02, 2e+05]
  Bounds range     [1e+00, 2e+07]
  RHS range        [2e+03, 2e+04]
  GenCon rhs range [1e+00, 1e+00]
  GenCon coe range [1e+00, 1e+00]

Processing MIP start from previous solve: 9 nodes explored in subMIP, total elapsed time 5s
MIP start from previous solve did not produce a new incumbent solution
Processed MIP start in 6.21 seconds (8.59 work units)

Presolve removed 1738 rows and 6666 columns
Presolve time: 0.40s
Presolved: 1650 rows, 5920 columns, 23713 nonzeros
Presolved model has 4 SOS constraint(s)
Variable types: 0 continuous, 5920 integer (34 binary)

Root simplex log...

Iteration    Objective       Primal Inf.    Dual Inf.      Time
       0    2.1433385e+06   2.204770e+05   0.000000e+00      7s
    6076    5.3828433e+07   0.000000e+00   0.000000e+00      7s

Root relaxation: objective 5.382843e+07, 6076 iterations, 0.07 seconds (0.08 work units)

    Nodes    |    Current Node    |     Objective Bounds      |     Work
 Expl Unexpl |  Obj  Depth IntInf | Incumbent    BestBd   Gap | It/Node Time

     0     0 5.3828e+07    0  317          - 5.3828e+07      -     -    6s
     0     0 5.3895e+07    0  942          - 5.3895e+07      -     -    6s
     0     0 5.3899e+07    0  947          - 5.3899e+07      -     -    6s
     0     0 5.3900e+07    0  948          - 5.3900e+07      -     -    6s
     0     0 5.3900e+07    0  951          - 5.3900e+07      -     -    6s
     0     0 5.4716e+07    0  738          - 5.4716e+07      -     -    7s
     0     0 5.4716e+07    0  758          - 5.4716e+07      -     -    7s
     0     0 5.4716e+07    0  790          - 5.4716e+07      -     -    7s
     0     0 5.4716e+07    0  799          - 5.4716e+07      -     -    7s
     0     0 5.4716e+07    0  915          - 5.4716e+07      -     -    7s
     0     0 5.4716e+07    0 1075          - 5.4716e+07      -     -    7s
     0     0 5.4716e+07    0 1107          - 5.4716e+07      -     -    7s
     0     0 5.4716e+07    0 1256          - 5.4716e+07      -     -    7s
H    0     0                    5.795121e+07 5.4716e+07  5.58%     -    7s
     0     0 5.4734e+07    0 1222 5.7951e+07 5.4734e+07  5.55%     -    7s
H    0     0                    5.793134e+07 5.4734e+07  5.52%     -    7s
     0     0 5.4777e+07    0 1198 5.7931e+07 5.4777e+07  5.44%     -    7s
H    0     0                    5.750111e+07 5.4777e+07  4.74%     -    8s
     0     2 5.4777e+07    0 1179 5.7501e+07 5.4777e+07  4.74%     -    8s
H   40    40                    5.682038e+07 5.5165e+07  2.91%   720    9s
H   41    52                    5.654461e+07 5.5165e+07  2.44%   711    9s
H  304   219                    5.649310e+07 5.5165e+07  2.35%   211    9s
H  305   219                    5.649052e+07 5.5165e+07  2.35%   211    9s
H  315   219                    5.649010e+07 5.5165e+07  2.35%   205    9s
   422   312 5.6490e+07   47    4 5.6490e+07 5.5165e+07  2.35%   175   10s
H  624   439                    5.649010e+07 5.5165e+07  2.35%   143   10s
  1519   736 5.6490e+07   16 1666 5.6490e+07 5.5371e+07  1.98%   151   15s
  2030   625 infeasible   22      5.6490e+07 5.5951e+07  0.95%   227   20s
* 2937   959              63    5.649010e+07 5.6370e+07  0.21%   183   20s
* 3324   947             151    5.643355e+07 5.6370e+07  0.11%   163   21s
* 3351   737              93    5.643353e+07 5.6370e+07  0.11%   162   21s

Cutting planes:
  Gomory: 3
  Implied bound: 501
  Projected implied bound: 42
  MIR: 40
  Flow cover: 29
  Inf proof: 1
  Relax-and-lift: 48

Explored 3561 nodes (558345 simplex iterations) in 21.29 seconds (32.12 work units)
Thread count was 8 (of 8 available processors)

Solution count 10: 5.64335e+07 5.64336e+07 5.64901e+07 ... 5.75011e+07

Optimal solution found (tolerance 1.00e-04)
Best objective 5.643353155250e+07, best bound 5.643351428288e+07, gap 0.0000%
